c "375713.clq"
p edge 138 536
e 1 5
e 1 6
e 1 9
e 1 10
e 1 17
e 1 21
e 1 23
e 1 26
e 1 27
e 1 32
e 1 33
e 1 35
e 1 38
e 1 45
e 1 50
e 1 55
e 1 58
e 1 59
e 1 87
e 1 93
e 1 94
e 1 111
e 1 136
e 2 5
e 2 6
e 2 7
e 2 8
e 2 9
e 2 10
e 2 13
e 2 14
e 2 15
e 2 16
e 2 19
e 2 20
e 2 22
e 2 23
e 2 28
e 2 29
e 2 32
e 2 34
e 2 37
e 2 42
e 2 43
e 2 45
e 2 48
e 2 49
e 2 52
e 2 55
e 2 56
e 2 62
e 2 64
e 2 67
e 2 69
e 2 70
e 2 76
e 2 77
e 2 79
e 2 81
e 2 87
e 2 89
e 2 90
e 2 96
e 2 99
e 2 120
e 2 126
e 2 135
e 3 5
e 3 6
e 3 7
e 3 8
e 3 9
e 3 12
e 3 21
e 3 25
e 3 26
e 3 35
e 3 40
e 3 43
e 3 50
e 3 51
e 3 75
e 3 78
e 3 83
e 3 92
e 3 104
e 3 105
e 3 107
e 3 108
e 3 123
e 3 125
e 4 5
e 4 11
e 4 16
e 4 19
e 4 23
e 4 24
e 4 29
e 4 53
e 4 56
e 4 57
e 4 66
e 4 68
e 4 77
e 4 80
e 4 105
e 5 6
e 5 7
e 5 8
e 5 11
e 5 12
e 5 13
e 5 15
e 5 16
e 5 17
e 5 20
e 5 21
e 5 22
e 5 23
e 5 25
e 5 28
e 5 30
e 5 31
e 5 33
e 5 35
e 5 37
e 5 38
e 5 39
e 5 41
e 5 43
e 5 45
e 5 46
e 5 47
e 5 48
e 5 51
e 5 53
e 5 56
e 5 58
e 5 59
e 5 63
e 5 68
e 5 72
e 5 75
e 5 77
e 5 83
e 5 86
e 5 87
e 5 89
e 5 90
e 5 91
e 5 93
e 5 99
e 5 101
e 5 110
e 5 112
e 5 113
e 5 114
e 5 122
e 5 124
e 5 126
e 5 134
e 6 7
e 6 13
e 6 17
e 6 27
e 6 45
e 6 49
e 6 60
e 6 76
e 6 77
e 6 116
e 6 126
e 6 133
e 7 8
e 7 9
e 7 10
e 7 11
e 7 12
e 7 14
e 7 17
e 7 18
e 7 19
e 7 33
e 7 34
e 7 35
e 7 36
e 7 41
e 7 42
e 7 47
e 7 66
e 7 74
e 7 96
e 7 97
e 7 100
e 7 101
e 7 118
e 7 122
e 7 136
e 7 137
e 8 18
e 8 27
e 8 54
e 8 85
e 8 97
e 8 132
e 9 10
e 9 11
e 9 14
e 9 25
e 9 38
e 9 39
e 9 44
e 9 48
e 9 51
e 9 55
e 9 57
e 9 64
e 9 65
e 9 66
e 9 69
e 9 70
e 9 72
e 9 73
e 9 75
e 9 83
e 9 95
e 9 97
e 9 108
e 9 118
e 9 119
e 9 124
e 9 133
e 10 13
e 10 18
e 10 19
e 10 21
e 10 33
e 10 34
e 10 40
e 10 44
e 10 46
e 10 54
e 10 65
e 10 68
e 10 71
e 10 72
e 10 80
e 10 92
e 10 128
e 10 132
e 11 12
e 11 20
e 11 22
e 11 34
e 11 36
e 11 49
e 11 69
e 11 82
e 11 86
e 12 14
e 12 15
e 12 20
e 12 26
e 12 54
e 12 78
e 12 85
e 12 104
e 12 116
e 12 137
e 13 16
e 13 28
e 13 31
e 13 37
e 13 62
e 13 67
e 13 70
e 13 79
e 13 91
e 13 102
e 13 121
e 14 15
e 14 31
e 14 36
e 14 59
e 14 79
e 14 88
e 14 125
e 15 18
e 15 26
e 15 27
e 15 32
e 15 46
e 15 74
e 15 76
e 15 78
e 15 89
e 15 96
e 15 98
e 15 99
e 15 103
e 15 104
e 15 119
e 15 126
e 16 49
e 16 64
e 16 99
e 16 114
e 16 133
e 17 22
e 17 24
e 17 36
e 17 46
e 17 47
e 17 62
e 17 63
e 17 65
e 17 80
e 17 103
e 17 120
e 17 134
e 18 39
e 18 48
e 18 84
e 18 120
e 18 132
e 19 24
e 19 25
e 19 28
e 19 29
e 19 30
e 19 37
e 19 50
e 19 52
e 19 60
e 19 61
e 19 70
e 19 74
e 19 88
e 19 98
e 19 119
e 19 129
e 21 29
e 21 30
e 21 55
e 21 86
e 21 97
e 21 98
e 21 107
e 21 112
e 21 134
e 22 87
e 23 24
e 23 31
e 23 52
e 23 94
e 23 106
e 23 117
e 23 122
e 24 117
e 25 66
e 25 67
e 25 85
e 25 128
e 26 32
e 26 51
e 26 62
e 26 71
e 26 74
e 26 103
e 26 135
e 27 53
e 27 93
e 27 114
e 27 116
e 28 30
e 28 42
e 28 58
e 28 130
e 29 61
e 29 72
e 29 109
e 29 110
e 29 131
e 30 41
e 30 63
e 30 90
e 30 107
e 30 115
e 30 123
e 31 43
e 31 47
e 31 64
e 31 81
e 31 130
e 32 40
e 32 56
e 32 100
e 32 123
e 33 38
e 33 39
e 33 42
e 33 80
e 34 41
e 34 44
e 34 76
e 34 112
e 35 53
e 35 84
e 36 50
e 36 54
e 36 75
e 36 78
e 36 132
e 37 52
e 37 81
e 37 85
e 37 86
e 37 93
e 37 116
e 38 110
e 38 121
e 39 40
e 39 59
e 39 82
e 39 91
e 39 101
e 39 120
e 40 115
e 41 61
e 41 65
e 41 79
e 41 111
e 43 44
e 43 98
e 46 57
e 46 102
e 46 107
e 46 129
e 46 135
e 47 106
e 47 109
e 48 60
e 48 105
e 49 58
e 50 71
e 50 84
e 51 61
e 51 63
e 52 69
e 52 106
e 52 113
e 52 138
e 53 57
e 53 67
e 53 71
e 53 73
e 53 100
e 54 68
e 54 133
e 55 103
e 55 118
e 55 135
e 56 60
e 58 96
e 59 81
e 59 94
e 59 129
e 61 92
e 63 95
e 63 117
e 64 73
e 64 102
e 64 117
e 64 118
e 64 121
e 65 92
e 65 124
e 65 130
e 67 83
e 68 127
e 69 82
e 69 88
e 69 108
e 70 73
e 70 114
e 72 84
e 72 88
e 72 110
e 72 113
e 73 90
e 73 101
e 73 108
e 73 109
e 75 82
e 76 137
e 79 89
e 79 91
e 80 122
e 80 131
e 81 119
e 81 138
e 82 127
e 84 100
e 84 115
e 85 95
e 85 102
e 85 115
e 85 134
e 86 94
e 86 95
e 86 111
e 87 138
e 89 112
e 89 113
e 91 104
e 93 127
e 94 124
e 94 127
e 98 106
e 98 130
e 100 105
e 101 109
e 101 111
e 101 131
e 103 121
e 104 125
e 104 138
e 110 128
e 112 131
e 114 129
e 115 128
e 119 125
e 122 123
e 122 137
e 124 136
e 132 136
